c CNF file corresponding to a (partial) station packing problem.
p cnf 1765 229
1 2 3 4 5 6 7 8 9 10 11 12 13 14 0
-1 -2 0
-1 -3 0
-1 -4 0
-1 -5 0
-1 -6 0
-1 -7 0
-1 -8 0
-1 -9 0
-1 -10 0
-1 -11 0
-1 -12 0
-1 -13 0
-1 -14 0
-2 -3 0
-2 -4 0
-2 -5 0
-2 -6 0
-2 -7 0
-2 -8 0
-2 -9 0
-2 -10 0
-2 -11 0
-2 -12 0
-2 -13 0
-2 -14 0
-3 -4 0
-3 -5 0
-3 -6 0
-3 -7 0
-3 -8 0
-3 -9 0
-3 -10 0
-3 -11 0
-3 -12 0
-3 -13 0
-3 -14 0
-4 -5 0
-4 -6 0
-4 -7 0
-4 -8 0
-4 -9 0
-4 -10 0
-4 -11 0
-4 -12 0
-4 -13 0
-4 -14 0
-5 -6 0
-5 -7 0
-5 -8 0
-5 -9 0
-5 -10 0
-5 -11 0
-5 -12 0
-5 -13 0
-5 -14 0
-6 -7 0
-6 -8 0
-6 -9 0
-6 -10 0
-6 -11 0
-6 -12 0
-6 -13 0
-6 -14 0
-7 -8 0
-7 -9 0
-7 -10 0
-7 -11 0
-7 -12 0
-7 -13 0
-7 -14 0
-8 -9 0
-8 -10 0
-8 -11 0
-8 -12 0
-8 -13 0
-8 -14 0
-9 -10 0
-9 -11 0
-9 -12 0
-9 -13 0
-9 -14 0
-10 -11 0
-10 -12 0
-10 -13 0
-10 -14 0
-11 -12 0
-11 -13 0
-11 -14 0
-12 -13 0
-12 -14 0
-13 -14 0
1749 1750 1751 1752 1753 1754 1755 1756 1757 1758 1759 1760 1761 1762 1763 1764 1765 0
-1749 -1750 0
-1749 -1751 0
-1749 -1752 0
-1749 -1753 0
-1749 -1754 0
-1749 -1755 0
-1749 -1756 0
-1749 -1757 0
-1749 -1758 0
-1749 -1759 0
-1749 -1760 0
-1749 -1761 0
-1749 -1762 0
-1749 -1763 0
-1749 -1764 0
-1749 -1765 0
-1750 -1751 0
-1750 -1752 0
-1750 -1753 0
-1750 -1754 0
-1750 -1755 0
-1750 -1756 0
-1750 -1757 0
-1750 -1758 0
-1750 -1759 0
-1750 -1760 0
-1750 -1761 0
-1750 -1762 0
-1750 -1763 0
-1750 -1764 0
-1750 -1765 0
-1751 -1752 0
-1751 -1753 0
-1751 -1754 0
-1751 -1755 0
-1751 -1756 0
-1751 -1757 0
-1751 -1758 0
-1751 -1759 0
-1751 -1760 0
-1751 -1761 0
-1751 -1762 0
-1751 -1763 0
-1751 -1764 0
-1751 -1765 0
-1752 -1753 0
-1752 -1754 0
-1752 -1755 0
-1752 -1756 0
-1752 -1757 0
-1752 -1758 0
-1752 -1759 0
-1752 -1760 0
-1752 -1761 0
-1752 -1762 0
-1752 -1763 0
-1752 -1764 0
-1752 -1765 0
-1753 -1754 0
-1753 -1755 0
-1753 -1756 0
-1753 -1757 0
-1753 -1758 0
-1753 -1759 0
-1753 -1760 0
-1753 -1761 0
-1753 -1762 0
-1753 -1763 0
-1753 -1764 0
-1753 -1765 0
-1754 -1755 0
-1754 -1756 0
-1754 -1757 0
-1754 -1758 0
-1754 -1759 0
-1754 -1760 0
-1754 -1761 0
-1754 -1762 0
-1754 -1763 0
-1754 -1764 0
-1754 -1765 0
-1755 -1756 0
-1755 -1757 0
-1755 -1758 0
-1755 -1759 0
-1755 -1760 0
-1755 -1761 0
-1755 -1762 0
-1755 -1763 0
-1755 -1764 0
-1755 -1765 0
-1756 -1757 0
-1756 -1758 0
-1756 -1759 0
-1756 -1760 0
-1756 -1761 0
-1756 -1762 0
-1756 -1763 0
-1756 -1764 0
-1756 -1765 0
-1757 -1758 0
-1757 -1759 0
-1757 -1760 0
-1757 -1761 0
-1757 -1762 0
-1757 -1763 0
-1757 -1764 0
-1757 -1765 0
-1758 -1759 0
-1758 -1760 0
-1758 -1761 0
-1758 -1762 0
-1758 -1763 0
-1758 -1764 0
-1758 -1765 0
-1759 -1760 0
-1759 -1761 0
-1759 -1762 0
-1759 -1763 0
-1759 -1764 0
-1759 -1765 0
-1760 -1761 0
-1760 -1762 0
-1760 -1763 0
-1760 -1764 0
-1760 -1765 0
-1761 -1762 0
-1761 -1763 0
-1761 -1764 0
-1761 -1765 0
-1762 -1763 0
-1762 -1764 0
-1762 -1765 0
-1763 -1764 0
-1763 -1765 0
-1764 -1765 0
